Cars = 1..200;
Options = 1..5;
Classes = 1..25;
sequenceMinCapacity = [0, 0, 0, 0, 0];
sequenceMaxCapacity = [1, 2, 1, 2, 1];
sequenceSize = [2, 3, 3, 5, 5];
numOrdered = [1, 25, 6, 5, 23, 11, 5, 3, 5, 7, 2, 6, 1, 3, 5, 43, 9, 14, 1, 1, 5, 2, 14, 1, 2];
classHasOption = [| true,  true, false, false,  true
                  |false, false, false,  true, false
                  |false,  true, false, false,  true
                  | true, false, false, false,  true
                  | true, false, false, false, false
                  | true,  true, false, false, false
                  |false, false,  true,  true, false
                  |false, false, false,  true,  true
                  | true, false, false,  true, false
                  |false,  true,  true, false, false
                  |false, false,  true,  true,  true
                  | true,  true,  true, false, false
                  |false,  true,  true,  true,  true
                  |false,  true,  true,  true, false
                  | true, false,  true,  true, false
                  |false,  true, false, false, false
                  |false, false, false, false,  true
                  |false,  true, false,  true, false
                  | true, false,  true, false, false
                  | true,  true,  true, false,  true
                  | true,  true, false,  true, false
                  |false,  true, false,  true,  true
                  |false, false,  true, false, false
                  | true,  true,  true, false, false
                  |false, false,  true, false,  true|];
optionOrdering = [5, 3, 4, 1, 2];
